15 7 3 16 12 10 2 8 1 19 9 5 13 4 17 11 18 0 14 6  
15 7 3 16 12 2 8 1 19 9 10 17 13 4 5 11 18 0 14 6  
15 7 3 12 16 10 2 8 1 19 9 5 13 4 17 11 18 0 14 6  
15 7 3 12 16 2 8 1 19 9 10 17 13 4 5 0 11 18 14 6  
15 7 12 3 16 2 8 1 10 19 9 17 13 4 5 11 18 0 14 6  
15 7 3 12 16 17 13 14 4 2 5 1 0 18 10 19 11 8 6 9  
15 7 3 12 16 2 8 1 19 9 10 17 13 4 5 11 18 0 14 6  
15 7 3 12 16 2 8 1 19 9 13 17 10 4 5 11 18 0 14 6  
15 7 3 12 16 2 8 1 19 5 10 9 17 13 14 18 0 11 6 4  
15 7 12 3 16 2 1 19 9 5 10 4 8 13 17 14 0 18 11 6  
15 7 3 12 16 2 8 1 10 19 9 17 13 4 5 11 18 0 14 6  
15 7 3 12 16 2 8 1 19 9 10 17 13 4 18 0 5 14 11 6  
15 7 3 16 12 2 8 1 19 9 10 17 13 4 5 11 18 0 14 6  
15 7 3 16 12 10 2 1 19 9 8 13 17 4 5 11 18 0 14 6  
15 7 12 3 5 10 4 16 2 1 17 13 14 18 0 19 11 8 6 9  
15 7 12 3 16 2 17 10 19 1 8 13 4 9 5 11 18 0 14 6  
15 7 3 12 16 2 10 8 1 19 9 5 13 4 17 11 6 18 0 14  
15 7 3 12 16 2 8 1 19 9 10 17 13 4 18 0 5 6 11 14  
15 7 12 3 16 2 10 8 1 19 17 13 14 4 5 0 18 11 6 9  
15 7 12 3 5 10 4 16 2 1 17 13 14 18 0 19 11 8 6 9  
15 7 12 3 16 2 8 10 1 19 9 5 13 4 17 11 18 0 14 6  
15 7 3 12 16 2 8 1 19 9 10 17 13 4 5 11 18 0 14 6  
15 7 3 12 16 2 8 1 19 9 10 17 13 4 5 0 11 18 14 6  
15 7 3 12 16 2 8 1 19 17 9 10 5 0 11 18 13 14 6 4  
15 7 3 16 12 10 2 8 1 19 9 5 13 4 17 11 18 0 14 6  
15 7 12 3 16 2 8 1 10 19 9 17 13 4 5 11 18 0 14 6  
15 7 12 3 16 2 8 1 10 19 9 17 13 4 5 11 18 0 14 6  
15 7 3 12 16 2 10 8 1 19 9 5 13 4 17 11 18 14 0 6  
15 7 3 12 16 2 17 1 19 9 8 10 5 0 11 18 13 14 6 4  
15 7 3 16 12 10 8 1 19 4 2 17 13 9 18 11 5 0 14 6  
15 7 3 16 12 2 8 1 19 9 10 17 5 13 11 18 0 14 6 4  
